mixintcount/benchmarks/random_v2l/5_5_2511.smt2
(set-logic QF_LIA)
(set-info :ran/ran2.smt2)
(set-info :smt-lib-version 2.0)
(declare-fun x1 () Int)
(declare-fun x2 () Int)
(declare-fun x3 () Int)
(declare-fun x4 () Int)
(declare-fun x5 () Int)
(assert (<= (+ (* (- 5) x1) (* 8 x2) (* 10 x3) (* 5 x4) (* (- 5) x5) ) 2307))
(assert (<= (+ (* (- 7) x1) (* 1 x2) (* (- 9) x3) (* (- 9) x4) (* (- 1) x5) ) (- 158)))
(assert (<= (+ (* (- 1) x1) (* 0 x2) (* (- 1) x3) (* (- 5) x4) (* (- 8) x5) ) 574))
(assert (<= (+ (* 6 x1) (* (- 3) x2) (* 1 x3) (* 2 x4) (* 5 x5) ) (- 383)))
(assert (<= (+ (* (- 9) x1) (* (- 2) x2) (* 7 x3) (* (- 8) x4) (* 7 x5) ) (- 1645)))
(assert (<= (+ (* 1 x1) (* (- 10) x2) (* 2 x3) (* 0 x4) (* 5 x5) ) (- 2156)))
(assert (<= (+ (* 2 x1) (* 6 x2) (* (- 3) x3) (* 1 x4) (* 8 x5) ) 1845))
(assert (<= (+ (* (- 1) x1) (* (- 6) x2) (* (- 6) x3) (* 6 x4) (* (- 3) x5) ) 1022))
(assert (<= (+ (* 8 x1) (* (- 8) x2) (* 1 x3) (* (- 2) x4) (* 2 x5) ) 940))
(assert (<= (+ (* (- 9) x1) (* 1 x2) (* 4 x3) (* 9 x4) (* 4 x5) ) (- 506)))
(assert (<= (+ (* 1 x1) (* 0 x2) (* 0 x3) (* 0 x4) (* 0 x5) ) 2511))
(assert (<= (+ (* (- 1) x1) (* 0 x2) (* 0 x3) (* 0 x4) (* 0 x5) ) 2511))
(assert (<= (+ (* 0 x1) (* 1 x2) (* 0 x3) (* 0 x4) (* 0 x5) ) 2511))
(assert (<= (+ (* 0 x1) (* (- 1) x2) (* 0 x3) (* 0 x4) (* 0 x5) ) 2511))
(assert (<= (+ (* 0 x1) (* 0 x2) (* 1 x3) (* 0 x4) (* 0 x5) ) 2511))
(assert (<= (+ (* 0 x1) (* 0 x2) (* (- 1) x3) (* 0 x4) (* 0 x5) ) 2511))
(assert (<= (+ (* 0 x1) (* 0 x2) (* 0 x3) (* 1 x4) (* 0 x5) ) 2511))
(assert (<= (+ (* 0 x1) (* 0 x2) (* 0 x3) (* (- 1) x4) (* 0 x5) ) 2511))
(assert (<= (+ (* 0 x1) (* 0 x2) (* 0 x3) (* 0 x4) (* 1 x5) ) 2511))
(assert (<= (+ (* 0 x1) (* 0 x2) (* 0 x3) (* 0 x4) (* (- 1) x5) ) 2511))
