mixintcount/benchmarks/random_v2l/5_5_2511.in
20 7
#	x1	x2	x3	x4	x5;		0 = Real; 1 = Integer
	1	1	1	1	1
1	-5	8	10	5	-5	2307
1	-7	1	-9	-9	-1	-158
1	-1	0	-1	-5	-8	574
1	6	-3	1	2	5	-383
1	-9	-2	7	-8	7	-1645
1	1	-10	2	0	5	-2156
1	2	6	-3	1	8	1845
1	-1	-6	-6	6	-3	1022
1	8	-8	1	-2	2	940
1	-9	1	4	9	4	-506
1	1	0	0	0	0	2511
1	-1	0	0	0	0	2511
1	0	1	0	0	0	2511
1	0	-1	0	0	0	2511
1	0	0	1	0	0	2511
1	0	0	-1	0	0	2511
1	0	0	0	1	0	2511
1	0	0	0	-1	0	2511
1	0	0	0	0	1	2511
1	0	0	0	0	-1	2511
